data/ILP/exact/instance027.lp
Minimize
obj: 5y_1 + 13y_2 + 13y_3 + 5y_4 + 5y_5 + 5y_6 + 5y_7 + 13y_8 + 13y_9 + 5y_10 + 5y_11 + 5y_12 + 5y_13 + 13y_14 + 5y_15 + 13y_16 + 5y_17 + 5y_18 + 5y_19 + 13y_20 + 13y_21 + 5y_22 + 5y_23 + 5y_24 + 13y_25 + 5y_26 + 5y_27 + 5y_28 + 13y_29 + 5y_30 + 13y_31 + 5y_32 + 5y_33 + 5y_34 + 13y_35 + 5y_36 + 5y_37 + 13y_38 + 13y_39 + 5y_40 + 5y_41 + 13y_42 + 5y_43 + 5y_44 + 13y_45 + 5y_46 + 13y_47 + 5y_48 + 13y_49 + 5y_50 + 5y_51 + 13y_52 + 13y_53 + 13y_54 + 5y_55 + 5y_56 + 5y_57 + 13y_58 + 5y_59 + 13y_60 + 13y_61 + 5y_62 + 5y_63 + 13y_64 + 13y_65 + 5y_66 + 5y_67 + 13y_68 + 5y_69 + 13y_70 + 5y_71 + 13y_72 + 5y_73 + 13y_74 + 5y_75 + 5y_76 + 13y_77 + 13y_78 + 5y_79 + 5y_80 + 13y_81 + 5y_82 + 5y_83 + 13y_84 + 5y_85 + 5y_86 + 13y_87 + 5y_88 + 13y_89 + 13y_90 + 5y_91 + 13y_92 + 5y_93 + 5y_94 + 13y_95 + 5y_96 + 5y_97 + 5y_98 + 13y_99 + 5y_100 + 13y_101 + 13y_102 + 5y_103 + 13y_104 + 5y_105 + 5y_106 + 5y_107 + 13y_108 + 13y_109 + 5y_110 + 5y_111 + 5y_112 + 13y_113 + 13y_114 + 5y_115 + 13y_116 + 13y_117 + 13y_118 + 5y_119 + 13y_120 + 5y_121 + 5y_122 + 5y_123 + 5y_124 + 13y_125 + 5y_126 + 13y_127 + 5y_128 + 5y_129 + 13y_130 + 5y_131 + 5y_132 + 13y_133 + 13y_134 + 5y_135 + 13y_136 + 5y_137 + 5y_138 + 5y_139 + 13y_140 + 5y_141 + 13y_142 + 5y_143 + 5y_144 + 5y_145 + 5y_146 + 13y_147 + 5y_148 + 5y_149 + 13y_150 + 5y_151 + 13y_152 + 13y_153 + 5y_154 + 5y_155 + 5y_156 + 5y_157 + 13y_158 + 5y_159 + 5y_160 + 13y_161 + 5y_162 + 5y_163 + 13y_164 + 5y_165 + 5y_166 + 13y_167 + 5y_168 + 13y_169 + 13y_170 + 13y_171 + 5y_172 + 5y_173 + 13y_174 + 13y_175 + 5y_176 + 13y_177 + 13y_178 + 13y_179 + 5y_180 + 13y_181 + 5y_182 + 5y_183 + 13y_184 + 5y_185 + 5y_186 + 13y_187 + 13y_188 + 5y_189 + 13y_190 + 5y_191 + 5y_192 + 5y_193 + 5y_194 + 5y_195 + 13y_196 + 13y_197 + 5y_198 + 5y_199 + 13y_200 + 5y_201 + 13y_202 + 13y_203 + 13y_204 + 5y_205 + 13y_206 + 13y_207 + 5y_208 + 5y_209 + 5y_210 + 13y_211 + 13y_212 + 5y_213 + 13y_214 + 5y_215 + 5y_216 + 5y_217 + 5y_218 + 13y_219 + 5y_220 + 5y_221 + 13y_222 + 13y_223 + 5y_224 + 5y_225 + 13y_226 + 13y_227 + 5y_228 + 13y_229 + 13y_230 + 5y_231 + 13y_232 + 5y_233 + 5y_234 + 5y_235 + 13y_236 + 5y_237 + 5y_238 + 5y_239 + 13y_240 + 5y_241 + 5y_242 + 5y_243 + 5y_244 + 13y_245 + 5y_246 + 13y_247 + 5y_248 + 13y_249 + 5y_250 + 5y_251 + 13y_252 + 13y_253 + 5y_254 + 5y_255 + 5y_256 + 13y_257 + 5y_258 + 13y_259 + 5y_260 + 5y_261 + 5y_262 + 5y_263 + 13y_264 + 5y_265 + 5y_266 + 5y_267 + 5y_268 + 13y_269 + 5y_270
Subject To
x_271 = 9
x_272 = 1
x_273 = 1
x_274 = 1
x_275 = 1
x_276 = 1
x_277 = 1
x_278 = 1
x_279 = 1
x_280 = 1
x_1 - 10y_1 <= 0
x_2 - 10y_2 <= 0
x_3 - 10y_3 <= 0
x_4 - 10y_4 <= 0
x_5 - 10y_5 <= 0
x_6 - 10y_6 <= 0
x_7 - 10y_7 <= 0
x_8 - 10y_8 <= 0
x_9 - 10y_9 <= 0
x_10 - 10y_10 <= 0
x_11 - 10y_11 <= 0
x_12 - 10y_12 <= 0
x_13 - 10y_13 <= 0
x_14 - 10y_14 <= 0
x_15 - 10y_15 <= 0
x_16 - 10y_16 <= 0
x_17 - 10y_17 <= 0
x_18 - 10y_18 <= 0
x_19 - 10y_19 <= 0
x_20 - 10y_20 <= 0
x_21 - 10y_21 <= 0
x_22 - 10y_22 <= 0
x_23 - 10y_23 <= 0
x_24 - 10y_24 <= 0
x_25 - 10y_25 <= 0
x_26 - 10y_26 <= 0
x_27 - 10y_27 <= 0
x_28 - 10y_28 <= 0
x_29 - 10y_29 <= 0
x_30 - 10y_30 <= 0
x_31 - 10y_31 <= 0
x_32 - 10y_32 <= 0
x_33 - 10y_33 <= 0
x_34 - 10y_34 <= 0
x_35 - 10y_35 <= 0
x_36 - 10y_36 <= 0
x_37 - 10y_37 <= 0
x_38 - 10y_38 <= 0
x_39 - 10y_39 <= 0
x_40 - 10y_40 <= 0
x_41 - 10y_41 <= 0
x_42 - 10y_42 <= 0
x_43 - 10y_43 <= 0
x_44 - 10y_44 <= 0
x_45 - 10y_45 <= 0
x_46 - 10y_46 <= 0
x_47 - 10y_47 <= 0
x_48 - 10y_48 <= 0
x_49 - 10y_49 <= 0
x_50 - 10y_50 <= 0
x_51 - 10y_51 <= 0
x_52 - 10y_52 <= 0
x_53 - 10y_53 <= 0
x_54 - 10y_54 <= 0
x_55 - 10y_55 <= 0
x_56 - 10y_56 <= 0
x_57 - 10y_57 <= 0
x_58 - 10y_58 <= 0
x_59 - 10y_59 <= 0
x_60 - 10y_60 <= 0
x_61 - 10y_61 <= 0
x_62 - 10y_62 <= 0
x_63 - 10y_63 <= 0
x_64 - 10y_64 <= 0
x_65 - 10y_65 <= 0
x_66 - 10y_66 <= 0
x_67 - 10y_67 <= 0
x_68 - 10y_68 <= 0
x_69 - 10y_69 <= 0
x_70 - 10y_70 <= 0
x_71 - 10y_71 <= 0
x_72 - 10y_72 <= 0
x_73 - 10y_73 <= 0
x_74 - 10y_74 <= 0
x_75 - 10y_75 <= 0
x_76 - 10y_76 <= 0
x_77 - 10y_77 <= 0
x_78 - 10y_78 <= 0
x_79 - 10y_79 <= 0
x_80 - 10y_80 <= 0
x_81 - 10y_81 <= 0
x_82 - 10y_82 <= 0
x_83 - 10y_83 <= 0
x_84 - 10y_84 <= 0
x_85 - 10y_85 <= 0
x_86 - 10y_86 <= 0
x_87 - 10y_87 <= 0
x_88 - 10y_88 <= 0
x_89 - 10y_89 <= 0
x_90 - 10y_90 <= 0
x_91 - 10y_91 <= 0
x_92 - 10y_92 <= 0
x_93 - 10y_93 <= 0
x_94 - 10y_94 <= 0
x_95 - 10y_95 <= 0
x_96 - 10y_96 <= 0
x_97 - 10y_97 <= 0
x_98 - 10y_98 <= 0
x_99 - 10y_99 <= 0
x_100 - 10y_100 <= 0
x_101 - 10y_101 <= 0
x_102 - 10y_102 <= 0
x_103 - 10y_103 <= 0
x_104 - 10y_104 <= 0
x_105 - 10y_105 <= 0
x_106 - 10y_106 <= 0
x_107 - 10y_107 <= 0
x_108 - 10y_108 <= 0
x_109 - 10y_109 <= 0
x_110 - 10y_110 <= 0
x_111 - 10y_111 <= 0
x_112 - 10y_112 <= 0
x_113 - 10y_113 <= 0
x_114 - 10y_114 <= 0
x_115 - 10y_115 <= 0
x_116 - 10y_116 <= 0
x_117 - 10y_117 <= 0
x_118 - 10y_118 <= 0
x_119 - 10y_119 <= 0
x_120 - 10y_120 <= 0
x_121 - 10y_121 <= 0
x_122 - 10y_122 <= 0
x_123 - 10y_123 <= 0
x_124 - 10y_124 <= 0
x_125 - 10y_125 <= 0
x_126 - 10y_126 <= 0
x_127 - 10y_127 <= 0
x_128 - 10y_128 <= 0
x_129 - 10y_129 <= 0
x_130 - 10y_130 <= 0
x_131 - 10y_131 <= 0
x_132 - 10y_132 <= 0
x_133 - 10y_133 <= 0
x_134 - 10y_134 <= 0
x_135 - 10y_135 <= 0
x_136 - 10y_136 <= 0
x_137 - 10y_137 <= 0
x_138 - 10y_138 <= 0
x_139 - 10y_139 <= 0
x_140 - 10y_140 <= 0
x_141 - 10y_141 <= 0
x_142 - 10y_142 <= 0
x_143 - 10y_143 <= 0
x_144 - 10y_144 <= 0
x_145 - 10y_145 <= 0
x_146 - 10y_146 <= 0
x_147 - 10y_147 <= 0
x_148 - 10y_148 <= 0
x_149 - 10y_149 <= 0
x_150 - 10y_150 <= 0
x_151 - 10y_151 <= 0
x_152 - 10y_152 <= 0
x_153 - 10y_153 <= 0
x_154 - 10y_154 <= 0
x_155 - 10y_155 <= 0
x_156 - 10y_156 <= 0
x_157 - 10y_157 <= 0
x_158 - 10y_158 <= 0
x_159 - 10y_159 <= 0
x_160 - 10y_160 <= 0
x_161 - 10y_161 <= 0
x_162 - 10y_162 <= 0
x_163 - 10y_163 <= 0
x_164 - 10y_164 <= 0
x_165 - 10y_165 <= 0
x_166 - 10y_166 <= 0
x_167 - 10y_167 <= 0
x_168 - 10y_168 <= 0
x_169 - 10y_169 <= 0
x_170 - 10y_170 <= 0
x_171 - 10y_171 <= 0
x_172 - 10y_172 <= 0
x_173 - 10y_173 <= 0
x_174 - 10y_174 <= 0
x_175 - 10y_175 <= 0
x_176 - 10y_176 <= 0
x_177 - 10y_177 <= 0
x_178 - 10y_178 <= 0
x_179 - 10y_179 <= 0
x_180 - 10y_180 <= 0
x_181 - 10y_181 <= 0
x_182 - 10y_182 <= 0
x_183 - 10y_183 <= 0
x_184 - 10y_184 <= 0
x_185 - 10y_185 <= 0
x_186 - 10y_186 <= 0
x_187 - 10y_187 <= 0
x_188 - 10y_188 <= 0
x_189 - 10y_189 <= 0
x_190 - 10y_190 <= 0
x_191 - 10y_191 <= 0
x_192 - 10y_192 <= 0
x_193 - 10y_193 <= 0
x_194 - 10y_194 <= 0
x_195 - 10y_195 <= 0
x_196 - 10y_196 <= 0
x_197 - 10y_197 <= 0
x_198 - 10y_198 <= 0
x_199 - 10y_199 <= 0
x_200 - 10y_200 <= 0
x_201 - 10y_201 <= 0
x_202 - 10y_202 <= 0
x_203 - 10y_203 <= 0
x_204 - 10y_204 <= 0
x_205 - 10y_205 <= 0
x_206 - 10y_206 <= 0
x_207 - 10y_207 <= 0
x_208 - 10y_208 <= 0
x_209 - 10y_209 <= 0
x_210 - 10y_210 <= 0
x_211 - 10y_211 <= 0
x_212 - 10y_212 <= 0
x_213 - 10y_213 <= 0
x_214 - 10y_214 <= 0
x_215 - 10y_215 <= 0
x_216 - 10y_216 <= 0
x_217 - 10y_217 <= 0
x_218 - 10y_218 <= 0
x_219 - 10y_219 <= 0
x_220 - 10y_220 <= 0
x_221 - 10y_221 <= 0
x_222 - 10y_222 <= 0
x_223 - 10y_223 <= 0
x_224 - 10y_224 <= 0
x_225 - 10y_225 <= 0
x_226 - 10y_226 <= 0
x_227 - 10y_227 <= 0
x_228 - 10y_228 <= 0
x_229 - 10y_229 <= 0
x_230 - 10y_230 <= 0
x_231 - 10y_231 <= 0
x_232 - 10y_232 <= 0
x_233 - 10y_233 <= 0
x_234 - 10y_234 <= 0
x_235 - 10y_235 <= 0
x_236 - 10y_236 <= 0
x_237 - 10y_237 <= 0
x_238 - 10y_238 <= 0
x_239 - 10y_239 <= 0
x_240 - 10y_240 <= 0
x_241 - 10y_241 <= 0
x_242 - 10y_242 <= 0
x_243 - 10y_243 <= 0
x_244 - 10y_244 <= 0
x_245 - 10y_245 <= 0
x_246 - 10y_246 <= 0
x_247 - 10y_247 <= 0
x_248 - 10y_248 <= 0
x_249 - 10y_249 <= 0
x_250 - 10y_250 <= 0
x_251 - 10y_251 <= 0
x_252 - 10y_252 <= 0
x_253 - 10y_253 <= 0
x_254 - 10y_254 <= 0
x_255 - 10y_255 <= 0
x_256 - 10y_256 <= 0
x_257 - 10y_257 <= 0
x_258 - 10y_258 <= 0
x_259 - 10y_259 <= 0
x_260 - 10y_260 <= 0
x_261 - 10y_261 <= 0
x_262 - 10y_262 <= 0
x_263 - 10y_263 <= 0
x_264 - 10y_264 <= 0
x_265 - 10y_265 <= 0
x_266 - 10y_266 <= 0
x_267 - 10y_267 <= 0
x_268 - 10y_268 <= 0
x_269 - 10y_269 <= 0
x_270 - 10y_270 <= 0
x_2 - x_52 +  x_1 - x_5 = 0
-x_272 +  x_4 - x_6 +  x_3 - x_54 +  x_5 - x_1 = 0
x_7 - x_10 +  x_6 - x_4 +  x_8 - x_58 = 0
x_11 - x_13 +  x_9 - x_60 +  x_10 - x_7 = 0
x_14 - x_65 +  x_12 - x_15 +  x_13 - x_11 = 0
x_16 - x_70 +  x_15 - x_12 +  x_17 - x_19 = 0
x_20 - x_74 +  x_19 - x_17 +  x_18 - x_22 = 0
x_21 - x_77 +  x_22 - x_18 +  x_23 - x_26 = 0
x_25 - x_81 +  x_24 - x_27 +  x_26 - x_23 = 0
x_27 - x_24 +  x_28 - x_30 +  x_29 - x_84 = 0
x_31 - x_87 +  x_32 - x_34 +  x_30 - x_28 = 0
x_33 - x_36 +  x_34 - x_32 +  x_35 - x_92 = 0
x_36 - x_33 +  x_37 - x_40 +  x_38 - x_95 = 0
x_40 - x_37 +  x_39 - x_99 +  x_41 - x_43 = 0
x_42 - x_101 +  x_43 - x_41 = 0
x_45 - x_108 +  x_44 - x_46 +  x_271 = 0
x_47 - x_113 +  x_46 - x_44 +  x_48 - x_50 = 0
x_49 - x_116 +  x_50 - x_48 = 0
x_52 - x_2 +  x_51 - x_55 - x_273 +  x_53 - x_120 = 0
x_55 - x_51 +  x_56 - x_59 +  x_54 - x_3 = 0
x_57 - x_62 +  x_58 - x_8 +  x_59 - x_56 = 0
x_61 - x_127 +  x_62 - x_57 +  x_60 - x_9 +  x_63 - x_66 = 0
x_66 - x_63 +  x_64 - x_130 +  x_67 - x_71 +  x_65 - x_14 = 0
x_69 - x_73 +  x_70 - x_16 +  x_71 - x_67 +  x_68 - x_133 = 0
x_74 - x_20 +  x_73 - x_69 +  x_72 - x_136 +  x_75 - x_79 = 0
-x_277 +  x_79 - x_75 +  x_76 - x_80 +  x_78 - x_140 +  x_77 - x_21 = 0
x_80 - x_76 +  x_81 - x_25 +  x_82 - x_85 = 0
x_84 - x_29 +  x_85 - x_82 +  x_83 - x_86 = 0
x_86 - x_83 +  x_88 - x_91 +  x_87 - x_31 +  x_89 - x_150 = 0
x_93 - x_96 +  x_90 - x_153 - x_280 +  x_92 - x_35 +  x_91 - x_88 = 0
x_94 - x_98 +  x_95 - x_38 +  x_96 - x_93 = 0
x_97 - x_100 +  x_99 - x_39 +  x_98 - x_94 = 0
x_101 - x_42 +  x_103 - x_106 +  x_100 - x_97 +  x_102 - x_161 = 0
x_105 - x_110 +  x_106 - x_103 +  x_104 - x_164 = 0
x_109 - x_167 +  x_107 - x_112 +  x_110 - x_105 +  x_108 - x_45 = 0
x_113 - x_47 +  x_112 - x_107 +  x_111 - x_115 +  x_114 - x_171 = 0
x_115 - x_111 +  x_116 - x_49 +  x_117 - x_175 = 0
x_118 - x_177 +  x_120 - x_53 +  x_119 - x_121 = 0
x_121 - x_119 +  x_122 - x_123 = 0
-x_276 +  x_125 - x_181 +  x_124 - x_128 +  x_123 - x_122 = 0
x_126 - x_131 +  x_127 - x_61 +  x_128 - x_124 = 0
x_131 - x_126 +  x_129 - x_132 +  x_130 - x_64 = 0
x_133 - x_68 +  x_134 - x_188 +  x_135 - x_137 - x_279 +  x_132 - x_129 = 0
x_137 - x_135 +  x_136 - x_72 +  x_138 - x_141 = 0
x_140 - x_78 +  x_139 - x_143 +  x_141 - x_138 = 0
x_143 - x_139 +  x_144 - x_146 +  x_142 - x_197 = 0
x_146 - x_144 +  x_147 - x_203 +  x_145 - x_148 = 0
x_150 - x_89 +  x_148 - x_145 +  x_149 - x_151 = 0
x_154 - x_156 +  x_153 - x_90 +  x_151 - x_149 +  x_152 - x_204 = 0
x_155 - x_159 +  x_156 - x_154 = 0
x_159 - x_155 - x_274 +  x_158 - x_211 +  x_157 - x_160 = 0
x_160 - x_157 +  x_162 - x_165 +  x_161 - x_102 = 0
x_164 - x_104 +  x_163 - x_166 +  x_165 - x_162 = 0
x_166 - x_163 +  x_168 - x_172 +  x_169 - x_222 +  x_167 - x_109 = 0
x_170 - x_223 +  x_171 - x_114 +  x_173 - x_176 +  x_172 - x_168 = 0
x_175 - x_117 +  x_174 - x_226 +  x_176 - x_173 = 0
x_178 - x_229 +  x_177 - x_118 = 0
x_179 - x_230 +  x_180 - x_183 +  x_181 - x_125 - x_278 = 0
x_183 - x_180 +  x_184 - x_232 +  x_182 - x_186 = 0
x_186 - x_182 +  x_187 - x_236 +  x_185 - x_189 = 0
x_191 - x_193 +  x_188 - x_134 +  x_190 - x_240 +  x_189 - x_185 = 0
x_192 - x_195 +  x_193 - x_191 = 0
x_195 - x_192 +  x_194 - x_198 +  x_196 - x_245 = 0
x_197 - x_142 +  x_198 - x_194 +  x_200 - x_247 +  x_199 - x_201 = 0
x_201 - x_199 +  x_202 - x_249 +  x_203 - x_147 = 0
x_204 - x_152 +  x_206 - x_252 +  x_205 - x_208 = 0
x_208 - x_205 +  x_209 - x_210 +  x_207 - x_253 = 0
x_211 - x_158 +  x_210 - x_209 +  x_213 - x_216 +  x_212 - x_257 = 0
x_214 - x_259 +  x_216 - x_213 +  x_215 - x_218 = 0
x_218 - x_215 - x_275 +  x_217 - x_220 +  x_219 - x_264 = 0
x_222 - x_169 +  x_221 - x_225 +  x_220 - x_217 = 0
x_224 - x_228 +  x_225 - x_221 +  x_223 - x_170 = 0
x_226 - x_174 +  x_227 - x_269 +  x_228 - x_224 = 0
x_229 - x_178 = 0
x_230 - x_179 +  x_231 - x_234 = 0
x_233 - x_237 +  x_232 - x_184 +  x_234 - x_231 = 0
x_237 - x_233 +  x_235 - x_239 +  x_236 - x_187 = 0
x_239 - x_235 +  x_238 - x_241 +  x_240 - x_190 = 0
x_242 - x_244 +  x_241 - x_238 = 0
x_245 - x_196 +  x_243 - x_246 +  x_244 - x_242 = 0
x_246 - x_243 +  x_248 - x_250 +  x_247 - x_200 = 0
x_249 - x_202 +  x_250 - x_248 = 0
x_251 - x_255 +  x_252 - x_206 = 0
x_254 - x_256 +  x_255 - x_251 +  x_253 - x_207 = 0
x_256 - x_254 +  x_257 - x_212 +  x_258 - x_261 = 0
x_260 - x_263 +  x_259 - x_214 +  x_261 - x_258 = 0
x_264 - x_219 +  x_262 - x_265 +  x_263 - x_260 = 0
x_265 - x_262 +  x_266 - x_267 = 0
x_268 - x_270 +  x_267 - x_266 = 0
x_270 - x_268 +  x_269 - x_227 = 0
Bounds
x_1 >= 0
x_2 >= 0
x_3 >= 0
x_4 >= 0
x_5 >= 0
x_6 >= 0
x_7 >= 0
x_8 >= 0
x_9 >= 0
x_10 >= 0
x_11 >= 0
x_12 >= 0
x_13 >= 0
x_14 >= 0
x_15 >= 0
x_16 >= 0
x_17 >= 0
x_18 >= 0
x_19 >= 0
x_20 >= 0
x_21 >= 0
x_22 >= 0
x_23 >= 0
x_24 >= 0
x_25 >= 0
x_26 >= 0
x_27 >= 0
x_28 >= 0
x_29 >= 0
x_30 >= 0
x_31 >= 0
x_32 >= 0
x_33 >= 0
x_34 >= 0
x_35 >= 0
x_36 >= 0
x_37 >= 0
x_38 >= 0
x_39 >= 0
x_40 >= 0
x_41 >= 0
x_42 >= 0
x_43 >= 0
x_44 >= 0
x_45 >= 0
x_46 >= 0
x_47 >= 0
x_48 >= 0
x_49 >= 0
x_50 >= 0
x_51 >= 0
x_52 >= 0
x_53 >= 0
x_54 >= 0
x_55 >= 0
x_56 >= 0
x_57 >= 0
x_58 >= 0
x_59 >= 0
x_60 >= 0
x_61 >= 0
x_62 >= 0
x_63 >= 0
x_64 >= 0
x_65 >= 0
x_66 >= 0
x_67 >= 0
x_68 >= 0
x_69 >= 0
x_70 >= 0
x_71 >= 0
x_72 >= 0
x_73 >= 0
x_74 >= 0
x_75 >= 0
x_76 >= 0
x_77 >= 0
x_78 >= 0
x_79 >= 0
x_80 >= 0
x_81 >= 0
x_82 >= 0
x_83 >= 0
x_84 >= 0
x_85 >= 0
x_86 >= 0
x_87 >= 0
x_88 >= 0
x_89 >= 0
x_90 >= 0
x_91 >= 0
x_92 >= 0
x_93 >= 0
x_94 >= 0
x_95 >= 0
x_96 >= 0
x_97 >= 0
x_98 >= 0
x_99 >= 0
x_100 >= 0
x_101 >= 0
x_102 >= 0
x_103 >= 0
x_104 >= 0
x_105 >= 0
x_106 >= 0
x_107 >= 0
x_108 >= 0
x_109 >= 0
x_110 >= 0
x_111 >= 0
x_112 >= 0
x_113 >= 0
x_114 >= 0
x_115 >= 0
x_116 >= 0
x_117 >= 0
x_118 >= 0
x_119 >= 0
x_120 >= 0
x_121 >= 0
x_122 >= 0
x_123 >= 0
x_124 >= 0
x_125 >= 0
x_126 >= 0
x_127 >= 0
x_128 >= 0
x_129 >= 0
x_130 >= 0
x_131 >= 0
x_132 >= 0
x_133 >= 0
x_134 >= 0
x_135 >= 0
x_136 >= 0
x_137 >= 0
x_138 >= 0
x_139 >= 0
x_140 >= 0
x_141 >= 0
x_142 >= 0
x_143 >= 0
x_144 >= 0
x_145 >= 0
x_146 >= 0
x_147 >= 0
x_148 >= 0
x_149 >= 0
x_150 >= 0
x_151 >= 0
x_152 >= 0
x_153 >= 0
x_154 >= 0
x_155 >= 0
x_156 >= 0
x_157 >= 0
x_158 >= 0
x_159 >= 0
x_160 >= 0
x_161 >= 0
x_162 >= 0
x_163 >= 0
x_164 >= 0
x_165 >= 0
x_166 >= 0
x_167 >= 0
x_168 >= 0
x_169 >= 0
x_170 >= 0
x_171 >= 0
x_172 >= 0
x_173 >= 0
x_174 >= 0
x_175 >= 0
x_176 >= 0
x_177 >= 0
x_178 >= 0
x_179 >= 0
x_180 >= 0
x_181 >= 0
x_182 >= 0
x_183 >= 0
x_184 >= 0
x_185 >= 0
x_186 >= 0
x_187 >= 0
x_188 >= 0
x_189 >= 0
x_190 >= 0
x_191 >= 0
x_192 >= 0
x_193 >= 0
x_194 >= 0
x_195 >= 0
x_196 >= 0
x_197 >= 0
x_198 >= 0
x_199 >= 0
x_200 >= 0
x_201 >= 0
x_202 >= 0
x_203 >= 0
x_204 >= 0
x_205 >= 0
x_206 >= 0
x_207 >= 0
x_208 >= 0
x_209 >= 0
x_210 >= 0
x_211 >= 0
x_212 >= 0
x_213 >= 0
x_214 >= 0
x_215 >= 0
x_216 >= 0
x_217 >= 0
x_218 >= 0
x_219 >= 0
x_220 >= 0
x_221 >= 0
x_222 >= 0
x_223 >= 0
x_224 >= 0
x_225 >= 0
x_226 >= 0
x_227 >= 0
x_228 >= 0
x_229 >= 0
x_230 >= 0
x_231 >= 0
x_232 >= 0
x_233 >= 0
x_234 >= 0
x_235 >= 0
x_236 >= 0
x_237 >= 0
x_238 >= 0
x_239 >= 0
x_240 >= 0
x_241 >= 0
x_242 >= 0
x_243 >= 0
x_244 >= 0
x_245 >= 0
x_246 >= 0
x_247 >= 0
x_248 >= 0
x_249 >= 0
x_250 >= 0
x_251 >= 0
x_252 >= 0
x_253 >= 0
x_254 >= 0
x_255 >= 0
x_256 >= 0
x_257 >= 0
x_258 >= 0
x_259 >= 0
x_260 >= 0
x_261 >= 0
x_262 >= 0
x_263 >= 0
x_264 >= 0
x_265 >= 0
x_266 >= 0
x_267 >= 0
x_268 >= 0
x_269 >= 0
x_270 >= 0
x_271 >= 0
x_272 >= 0
x_273 >= 0
x_274 >= 0
x_275 >= 0
x_276 >= 0
x_277 >= 0
x_278 >= 0
x_279 >= 0
x_280 >= 0
General
Binaries
y_1
y_2
y_3
y_4
y_5
y_6
y_7
y_8
y_9
y_10
y_11
y_12
y_13
y_14
y_15
y_16
y_17
y_18
y_19
y_20
y_21
y_22
y_23
y_24
y_25
y_26
y_27
y_28
y_29
y_30
y_31
y_32
y_33
y_34
y_35
y_36
y_37
y_38
y_39
y_40
y_41
y_42
y_43
y_44
y_45
y_46
y_47
y_48
y_49
y_50
y_51
y_52
y_53
y_54
y_55
y_56
y_57
y_58
y_59
y_60
y_61
y_62
y_63
y_64
y_65
y_66
y_67
y_68
y_69
y_70
y_71
y_72
y_73
y_74
y_75
y_76
y_77
y_78
y_79
y_80
y_81
y_82
y_83
y_84
y_85
y_86
y_87
y_88
y_89
y_90
y_91
y_92
y_93
y_94
y_95
y_96
y_97
y_98
y_99
y_100
y_101
y_102
y_103
y_104
y_105
y_106
y_107
y_108
y_109
y_110
y_111
y_112
y_113
y_114
y_115
y_116
y_117
y_118
y_119
y_120
y_121
y_122
y_123
y_124
y_125
y_126
y_127
y_128
y_129
y_130
y_131
y_132
y_133
y_134
y_135
y_136
y_137
y_138
y_139
y_140
y_141
y_142
y_143
y_144
y_145
y_146
y_147
y_148
y_149
y_150
y_151
y_152
y_153
y_154
y_155
y_156
y_157
y_158
y_159
y_160
y_161
y_162
y_163
y_164
y_165
y_166
y_167
y_168
y_169
y_170
y_171
y_172
y_173
y_174
y_175
y_176
y_177
y_178
y_179
y_180
y_181
y_182
y_183
y_184
y_185
y_186
y_187
y_188
y_189
y_190
y_191
y_192
y_193
y_194
y_195
y_196
y_197
y_198
y_199
y_200
y_201
y_202
y_203
y_204
y_205
y_206
y_207
y_208
y_209
y_210
y_211
y_212
y_213
y_214
y_215
y_216
y_217
y_218
y_219
y_220
y_221
y_222
y_223
y_224
y_225
y_226
y_227
y_228
y_229
y_230
y_231
y_232
y_233
y_234
y_235
y_236
y_237
y_238
y_239
y_240
y_241
y_242
y_243
y_244
y_245
y_246
y_247
y_248
y_249
y_250
y_251
y_252
y_253
y_254
y_255
y_256
y_257
y_258
y_259
y_260
y_261
y_262
y_263
y_264
y_265
y_266
y_267
y_268
y_269
y_270
End
