data/solutions/exact100kb/instance027.txt
VALUE 188
2 20
19 20
20 21
21 22
22 23
23 24
24 25
25 26
26 27
27 28
28 29
29 30
30 31
31 32
32 33
33 34
34 35
16 35
40 41
41 42
42 43
24 43
51 52
33 52
40 58
51 68
68 69
69 70

